\* Chemical_Products_Transportation_Problem *\
Minimize
Maintenance_costs: 167 truck_status_10_0 + 167 truck_status_10_1
 + 167 truck_status_10_10 + 167 truck_status_10_11 + 167 truck_status_10_2
 + 167 truck_status_10_3 + 167 truck_status_10_4 + 167 truck_status_10_5
 + 167 truck_status_10_6 + 167 truck_status_10_7 + 167 truck_status_10_8
 + 167 truck_status_10_9 + 167 truck_status_11_0 + 167 truck_status_11_1
 + 167 truck_status_11_10 + 167 truck_status_11_11 + 167 truck_status_11_2
 + 167 truck_status_11_3 + 167 truck_status_11_4 + 167 truck_status_11_5
 + 167 truck_status_11_6 + 167 truck_status_11_7 + 167 truck_status_11_8
 + 167 truck_status_11_9 + 167 truck_status_12_0 + 167 truck_status_12_1
 + 167 truck_status_12_10 + 167 truck_status_12_11 + 167 truck_status_12_2
 + 167 truck_status_12_3 + 167 truck_status_12_4 + 167 truck_status_12_5
 + 167 truck_status_12_6 + 167 truck_status_12_7 + 167 truck_status_12_8
 + 167 truck_status_12_9 + 167 truck_status_13_0 + 167 truck_status_13_1
 + 167 truck_status_13_10 + 167 truck_status_13_11 + 167 truck_status_13_2
 + 167 truck_status_13_3 + 167 truck_status_13_4 + 167 truck_status_13_5
 + 167 truck_status_13_6 + 167 truck_status_13_7 + 167 truck_status_13_8
 + 167 truck_status_13_9 + 167 truck_status_14_0 + 167 truck_status_14_1
 + 167 truck_status_14_10 + 167 truck_status_14_11 + 167 truck_status_14_2
 + 167 truck_status_14_3 + 167 truck_status_14_4 + 167 truck_status_14_5
 + 167 truck_status_14_6 + 167 truck_status_14_7 + 167 truck_status_14_8
 + 167 truck_status_14_9 + 167 truck_status_15_0 + 167 truck_status_15_1
 + 167 truck_status_15_10 + 167 truck_status_15_11 + 167 truck_status_15_2
 + 167 truck_status_15_3 + 167 truck_status_15_4 + 167 truck_status_15_5
 + 167 truck_status_15_6 + 167 truck_status_15_7 + 167 truck_status_15_8
 + 167 truck_status_15_9 + 167 truck_status_16_0 + 167 truck_status_16_1
 + 167 truck_status_16_10 + 167 truck_status_16_11 + 167 truck_status_16_2
 + 167 truck_status_16_3 + 167 truck_status_16_4 + 167 truck_status_16_5
 + 167 truck_status_16_6 + 167 truck_status_16_7 + 167 truck_status_16_8
 + 167 truck_status_16_9 + 167 truck_status_17_0 + 167 truck_status_17_1
 + 167 truck_status_17_10 + 167 truck_status_17_11 + 167 truck_status_17_2
 + 167 truck_status_17_3 + 167 truck_status_17_4 + 167 truck_status_17_5
 + 167 truck_status_17_6 + 167 truck_status_17_7 + 167 truck_status_17_8
 + 167 truck_status_17_9 + 167 truck_status_18_0 + 167 truck_status_18_1
 + 167 truck_status_18_10 + 167 truck_status_18_11 + 167 truck_status_18_2
 + 167 truck_status_18_3 + 167 truck_status_18_4 + 167 truck_status_18_5
 + 167 truck_status_18_6 + 167 truck_status_18_7 + 167 truck_status_18_8
 + 167 truck_status_18_9 + 167 truck_status_19_0 + 167 truck_status_19_1
 + 167 truck_status_19_10 + 167 truck_status_19_11 + 167 truck_status_19_2
 + 167 truck_status_19_3 + 167 truck_status_19_4 + 167 truck_status_19_5
 + 167 truck_status_19_6 + 167 truck_status_19_7 + 167 truck_status_19_8
 + 167 truck_status_19_9 + 167 truck_status_1_0 + 167 truck_status_1_1
 + 167 truck_status_1_10 + 167 truck_status_1_11 + 167 truck_status_1_2
 + 167 truck_status_1_3 + 167 truck_status_1_4 + 167 truck_status_1_5
 + 167 truck_status_1_6 + 167 truck_status_1_7 + 167 truck_status_1_8
 + 167 truck_status_1_9 + 167 truck_status_20_0 + 167 truck_status_20_1
 + 167 truck_status_20_10 + 167 truck_status_20_11 + 167 truck_status_20_2
 + 167 truck_status_20_3 + 167 truck_status_20_4 + 167 truck_status_20_5
 + 167 truck_status_20_6 + 167 truck_status_20_7 + 167 truck_status_20_8
 + 167 truck_status_20_9 + 167 truck_status_2_0 + 167 truck_status_2_1
 + 167 truck_status_2_10 + 167 truck_status_2_11 + 167 truck_status_2_2
 + 167 truck_status_2_3 + 167 truck_status_2_4 + 167 truck_status_2_5
 + 167 truck_status_2_6 + 167 truck_status_2_7 + 167 truck_status_2_8
 + 167 truck_status_2_9 + 167 truck_status_3_0 + 167 truck_status_3_1
 + 167 truck_status_3_10 + 167 truck_status_3_11 + 167 truck_status_3_2
 + 167 truck_status_3_3 + 167 truck_status_3_4 + 167 truck_status_3_5
 + 167 truck_status_3_6 + 167 truck_status_3_7 + 167 truck_status_3_8
 + 167 truck_status_3_9 + 167 truck_status_4_0 + 167 truck_status_4_1
 + 167 truck_status_4_10 + 167 truck_status_4_11 + 167 truck_status_4_2
 + 167 truck_status_4_3 + 167 truck_status_4_4 + 167 truck_status_4_5
 + 167 truck_status_4_6 + 167 truck_status_4_7 + 167 truck_status_4_8
 + 167 truck_status_4_9 + 167 truck_status_5_0 + 167 truck_status_5_1
 + 167 truck_status_5_10 + 167 truck_status_5_11 + 167 truck_status_5_2
 + 167 truck_status_5_3 + 167 truck_status_5_4 + 167 truck_status_5_5
 + 167 truck_status_5_6 + 167 truck_status_5_7 + 167 truck_status_5_8
 + 167 truck_status_5_9 + 167 truck_status_6_0 + 167 truck_status_6_1
 + 167 truck_status_6_10 + 167 truck_status_6_11 + 167 truck_status_6_2
 + 167 truck_status_6_3 + 167 truck_status_6_4 + 167 truck_status_6_5
 + 167 truck_status_6_6 + 167 truck_status_6_7 + 167 truck_status_6_8
 + 167 truck_status_6_9 + 167 truck_status_7_0 + 167 truck_status_7_1
 + 167 truck_status_7_10 + 167 truck_status_7_11 + 167 truck_status_7_2
 + 167 truck_status_7_3 + 167 truck_status_7_4 + 167 truck_status_7_5
 + 167 truck_status_7_6 + 167 truck_status_7_7 + 167 truck_status_7_8
 + 167 truck_status_7_9 + 167 truck_status_8_0 + 167 truck_status_8_1
 + 167 truck_status_8_10 + 167 truck_status_8_11 + 167 truck_status_8_2
 + 167 truck_status_8_3 + 167 truck_status_8_4 + 167 truck_status_8_5
 + 167 truck_status_8_6 + 167 truck_status_8_7 + 167 truck_status_8_8
 + 167 truck_status_8_9 + 167 truck_status_9_0 + 167 truck_status_9_1
 + 167 truck_status_9_10 + 167 truck_status_9_11 + 167 truck_status_9_2
 + 167 truck_status_9_3 + 167 truck_status_9_4 + 167 truck_status_9_5
 + 167 truck_status_9_6 + 167 truck_status_9_7 + 167 truck_status_9_8
 + 167 truck_status_9_9
Subject To
Anvers_base_supply_during_year_0: Route_10_('Liege',_'Anvers')_0
 + Route_11_('Liege',_'Anvers')_0 + Route_12_('Liege',_'Anvers')_0
 + Route_13_('Liege',_'Anvers')_0 + Route_14_('Liege',_'Anvers')_0
 + Route_15_('Liege',_'Anvers')_0 + Route_16_('Liege',_'Anvers')_0
 + Route_17_('Liege',_'Anvers')_0 + Route_18_('Liege',_'Anvers')_0
 + Route_19_('Liege',_'Anvers')_0 + Route_1_('Liege',_'Anvers')_0
 + Route_20_('Liege',_'Anvers')_0 + Route_2_('Liege',_'Anvers')_0
 + Route_3_('Liege',_'Anvers')_0 + Route_4_('Liege',_'Anvers')_0
 + Route_5_('Liege',_'Anvers')_0 + Route_6_('Liege',_'Anvers')_0
 + Route_7_('Liege',_'Anvers')_0 + Route_8_('Liege',_'Anvers')_0
 + Route_9_('Liege',_'Anvers')_0 = 545
Bruxelles_base_supply_during_year_0: Route_10_('Liege',_'Bruxelles')_0
 + Route_11_('Liege',_'Bruxelles')_0 + Route_12_('Liege',_'Bruxelles')_0
 + Route_13_('Liege',_'Bruxelles')_0 + Route_14_('Liege',_'Bruxelles')_0
 + Route_15_('Liege',_'Bruxelles')_0 + Route_16_('Liege',_'Bruxelles')_0
 + Route_17_('Liege',_'Bruxelles')_0 + Route_18_('Liege',_'Bruxelles')_0
 + Route_19_('Liege',_'Bruxelles')_0 + Route_1_('Liege',_'Bruxelles')_0
 + Route_20_('Liege',_'Bruxelles')_0 + Route_2_('Liege',_'Bruxelles')_0
 + Route_3_('Liege',_'Bruxelles')_0 + Route_4_('Liege',_'Bruxelles')_0
 + Route_5_('Liege',_'Bruxelles')_0 + Route_6_('Liege',_'Bruxelles')_0
 + Route_7_('Liege',_'Bruxelles')_0 + Route_8_('Liege',_'Bruxelles')_0
 + Route_9_('Liege',_'Bruxelles')_0 = 375
Charleroi_base_supply_during_year_0: Route_10_('Liege',_'Charleroi')_0
 + Route_11_('Liege',_'Charleroi')_0 + Route_12_('Liege',_'Charleroi')_0
 + Route_13_('Liege',_'Charleroi')_0 + Route_14_('Liege',_'Charleroi')_0
 + Route_15_('Liege',_'Charleroi')_0 + Route_16_('Liege',_'Charleroi')_0
 + Route_17_('Liege',_'Charleroi')_0 + Route_18_('Liege',_'Charleroi')_0
 + Route_19_('Liege',_'Charleroi')_0 + Route_1_('Liege',_'Charleroi')_0
 + Route_20_('Liege',_'Charleroi')_0 + Route_2_('Liege',_'Charleroi')_0
 + Route_3_('Liege',_'Charleroi')_0 + Route_4_('Liege',_'Charleroi')_0
 + Route_5_('Liege',_'Charleroi')_0 + Route_6_('Liege',_'Charleroi')_0
 + Route_7_('Liege',_'Charleroi')_0 + Route_8_('Liege',_'Charleroi')_0
 + Route_9_('Liege',_'Charleroi')_0 = 727
Gand_base_supply_during_year_0: Route_10_('Liege',_'Gand')_0
 + Route_11_('Liege',_'Gand')_0 + Route_12_('Liege',_'Gand')_0
 + Route_13_('Liege',_'Gand')_0 + Route_14_('Liege',_'Gand')_0
 + Route_15_('Liege',_'Gand')_0 + Route_16_('Liege',_'Gand')_0
 + Route_17_('Liege',_'Gand')_0 + Route_18_('Liege',_'Gand')_0
 + Route_19_('Liege',_'Gand')_0 + Route_1_('Liege',_'Gand')_0
 + Route_20_('Liege',_'Gand')_0 + Route_2_('Liege',_'Gand')_0
 + Route_3_('Liege',_'Gand')_0 + Route_4_('Liege',_'Gand')_0
 + Route_5_('Liege',_'Gand')_0 + Route_6_('Liege',_'Gand')_0
 + Route_7_('Liege',_'Gand')_0 + Route_8_('Liege',_'Gand')_0
 + Route_9_('Liege',_'Gand')_0 = 121
Hasselt_base_supply_during_year_0: Route_10_('Liege',_'Hasselt')_0
 + Route_11_('Liege',_'Hasselt')_0 + Route_12_('Liege',_'Hasselt')_0
 + Route_13_('Liege',_'Hasselt')_0 + Route_14_('Liege',_'Hasselt')_0
 + Route_15_('Liege',_'Hasselt')_0 + Route_16_('Liege',_'Hasselt')_0
 + Route_17_('Liege',_'Hasselt')_0 + Route_18_('Liege',_'Hasselt')_0
 + Route_19_('Liege',_'Hasselt')_0 + Route_1_('Liege',_'Hasselt')_0
 + Route_20_('Liege',_'Hasselt')_0 + Route_2_('Liege',_'Hasselt')_0
 + Route_3_('Liege',_'Hasselt')_0 + Route_4_('Liege',_'Hasselt')_0
 + Route_5_('Liege',_'Hasselt')_0 + Route_6_('Liege',_'Hasselt')_0
 + Route_7_('Liege',_'Hasselt')_0 + Route_8_('Liege',_'Hasselt')_0
 + Route_9_('Liege',_'Hasselt')_0 = 21
Liege_acid_supply_during_year_0: Route_10_('Anvers',_'Liege')_0
 + Route_11_('Anvers',_'Liege')_0 + Route_12_('Anvers',_'Liege')_0
 + Route_13_('Anvers',_'Liege')_0 + Route_14_('Anvers',_'Liege')_0
 + Route_15_('Anvers',_'Liege')_0 + Route_16_('Anvers',_'Liege')_0
 + Route_17_('Anvers',_'Liege')_0 + Route_18_('Anvers',_'Liege')_0
 + Route_19_('Anvers',_'Liege')_0 + Route_1_('Anvers',_'Liege')_0
 + Route_20_('Anvers',_'Liege')_0 + Route_2_('Anvers',_'Liege')_0
 + Route_3_('Anvers',_'Liege')_0 + Route_4_('Anvers',_'Liege')_0
 + Route_5_('Anvers',_'Liege')_0 + Route_6_('Anvers',_'Liege')_0
 + Route_7_('Anvers',_'Liege')_0 + Route_8_('Anvers',_'Liege')_0
 + Route_9_('Anvers',_'Liege')_0 = 1818
Truck_10_time_check_during_year_0: - 5 Route_10_('Anvers',_'Liege')_0
 - 5 Route_10_('Liege',_'Anvers')_0
 - 4.85714285714 Route_10_('Liege',_'Bruxelles')_0
 - 4.85714285714 Route_10_('Liege',_'Charleroi')_0
 - 6 Route_10_('Liege',_'Gand')_0
 - 3.71428571429 Route_10_('Liege',_'Hasselt')_0 + 160 truck_status_10_0
 + 160 truck_status_10_1 + 160 truck_status_10_10 + 160 truck_status_10_11
 + 160 truck_status_10_2 + 160 truck_status_10_3 + 160 truck_status_10_4
 + 160 truck_status_10_5 + 160 truck_status_10_6 + 160 truck_status_10_7
 + 160 truck_status_10_8 + 160 truck_status_10_9 >= 0
Truck_11_time_check_during_year_0: - 5 Route_11_('Anvers',_'Liege')_0
 - 5 Route_11_('Liege',_'Anvers')_0
 - 4.85714285714 Route_11_('Liege',_'Bruxelles')_0
 - 4.85714285714 Route_11_('Liege',_'Charleroi')_0
 - 6 Route_11_('Liege',_'Gand')_0
 - 3.71428571429 Route_11_('Liege',_'Hasselt')_0 + 160 truck_status_11_0
 + 160 truck_status_11_1 + 160 truck_status_11_10 + 160 truck_status_11_11
 + 160 truck_status_11_2 + 160 truck_status_11_3 + 160 truck_status_11_4
 + 160 truck_status_11_5 + 160 truck_status_11_6 + 160 truck_status_11_7
 + 160 truck_status_11_8 + 160 truck_status_11_9 >= 0
Truck_12_time_check_during_year_0: - 5 Route_12_('Anvers',_'Liege')_0
 - 5 Route_12_('Liege',_'Anvers')_0
 - 4.85714285714 Route_12_('Liege',_'Bruxelles')_0
 - 4.85714285714 Route_12_('Liege',_'Charleroi')_0
 - 6 Route_12_('Liege',_'Gand')_0
 - 3.71428571429 Route_12_('Liege',_'Hasselt')_0 + 160 truck_status_12_0
 + 160 truck_status_12_1 + 160 truck_status_12_10 + 160 truck_status_12_11
 + 160 truck_status_12_2 + 160 truck_status_12_3 + 160 truck_status_12_4
 + 160 truck_status_12_5 + 160 truck_status_12_6 + 160 truck_status_12_7
 + 160 truck_status_12_8 + 160 truck_status_12_9 >= 0
Truck_13_time_check_during_year_0: - 5 Route_13_('Anvers',_'Liege')_0
 - 5 Route_13_('Liege',_'Anvers')_0
 - 4.85714285714 Route_13_('Liege',_'Bruxelles')_0
 - 4.85714285714 Route_13_('Liege',_'Charleroi')_0
 - 6 Route_13_('Liege',_'Gand')_0
 - 3.71428571429 Route_13_('Liege',_'Hasselt')_0 + 160 truck_status_13_0
 + 160 truck_status_13_1 + 160 truck_status_13_10 + 160 truck_status_13_11
 + 160 truck_status_13_2 + 160 truck_status_13_3 + 160 truck_status_13_4
 + 160 truck_status_13_5 + 160 truck_status_13_6 + 160 truck_status_13_7
 + 160 truck_status_13_8 + 160 truck_status_13_9 >= 0
Truck_14_time_check_during_year_0: - 5 Route_14_('Anvers',_'Liege')_0
 - 5 Route_14_('Liege',_'Anvers')_0
 - 4.85714285714 Route_14_('Liege',_'Bruxelles')_0
 - 4.85714285714 Route_14_('Liege',_'Charleroi')_0
 - 6 Route_14_('Liege',_'Gand')_0
 - 3.71428571429 Route_14_('Liege',_'Hasselt')_0 + 160 truck_status_14_0
 + 160 truck_status_14_1 + 160 truck_status_14_10 + 160 truck_status_14_11
 + 160 truck_status_14_2 + 160 truck_status_14_3 + 160 truck_status_14_4
 + 160 truck_status_14_5 + 160 truck_status_14_6 + 160 truck_status_14_7
 + 160 truck_status_14_8 + 160 truck_status_14_9 >= 0
Truck_15_time_check_during_year_0: - 5 Route_15_('Anvers',_'Liege')_0
 - 5 Route_15_('Liege',_'Anvers')_0
 - 4.85714285714 Route_15_('Liege',_'Bruxelles')_0
 - 4.85714285714 Route_15_('Liege',_'Charleroi')_0
 - 6 Route_15_('Liege',_'Gand')_0
 - 3.71428571429 Route_15_('Liege',_'Hasselt')_0 + 160 truck_status_15_0
 + 160 truck_status_15_1 + 160 truck_status_15_10 + 160 truck_status_15_11
 + 160 truck_status_15_2 + 160 truck_status_15_3 + 160 truck_status_15_4
 + 160 truck_status_15_5 + 160 truck_status_15_6 + 160 truck_status_15_7
 + 160 truck_status_15_8 + 160 truck_status_15_9 >= 0
Truck_16_time_check_during_year_0: - 5 Route_16_('Anvers',_'Liege')_0
 - 5 Route_16_('Liege',_'Anvers')_0
 - 4.85714285714 Route_16_('Liege',_'Bruxelles')_0
 - 4.85714285714 Route_16_('Liege',_'Charleroi')_0
 - 6 Route_16_('Liege',_'Gand')_0
 - 3.71428571429 Route_16_('Liege',_'Hasselt')_0 + 160 truck_status_16_0
 + 160 truck_status_16_1 + 160 truck_status_16_10 + 160 truck_status_16_11
 + 160 truck_status_16_2 + 160 truck_status_16_3 + 160 truck_status_16_4
 + 160 truck_status_16_5 + 160 truck_status_16_6 + 160 truck_status_16_7
 + 160 truck_status_16_8 + 160 truck_status_16_9 >= 0
Truck_17_time_check_during_year_0: - 5 Route_17_('Anvers',_'Liege')_0
 - 5 Route_17_('Liege',_'Anvers')_0
 - 4.85714285714 Route_17_('Liege',_'Bruxelles')_0
 - 4.85714285714 Route_17_('Liege',_'Charleroi')_0
 - 6 Route_17_('Liege',_'Gand')_0
 - 3.71428571429 Route_17_('Liege',_'Hasselt')_0 + 160 truck_status_17_0
 + 160 truck_status_17_1 + 160 truck_status_17_10 + 160 truck_status_17_11
 + 160 truck_status_17_2 + 160 truck_status_17_3 + 160 truck_status_17_4
 + 160 truck_status_17_5 + 160 truck_status_17_6 + 160 truck_status_17_7
 + 160 truck_status_17_8 + 160 truck_status_17_9 >= 0
Truck_18_time_check_during_year_0: - 5 Route_18_('Anvers',_'Liege')_0
 - 5 Route_18_('Liege',_'Anvers')_0
 - 4.85714285714 Route_18_('Liege',_'Bruxelles')_0
 - 4.85714285714 Route_18_('Liege',_'Charleroi')_0
 - 6 Route_18_('Liege',_'Gand')_0
 - 3.71428571429 Route_18_('Liege',_'Hasselt')_0 + 160 truck_status_18_0
 + 160 truck_status_18_1 + 160 truck_status_18_10 + 160 truck_status_18_11
 + 160 truck_status_18_2 + 160 truck_status_18_3 + 160 truck_status_18_4
 + 160 truck_status_18_5 + 160 truck_status_18_6 + 160 truck_status_18_7
 + 160 truck_status_18_8 + 160 truck_status_18_9 >= 0
Truck_19_time_check_during_year_0: - 5 Route_19_('Anvers',_'Liege')_0
 - 5 Route_19_('Liege',_'Anvers')_0
 - 4.85714285714 Route_19_('Liege',_'Bruxelles')_0
 - 4.85714285714 Route_19_('Liege',_'Charleroi')_0
 - 6 Route_19_('Liege',_'Gand')_0
 - 3.71428571429 Route_19_('Liege',_'Hasselt')_0 + 160 truck_status_19_0
 + 160 truck_status_19_1 + 160 truck_status_19_10 + 160 truck_status_19_11
 + 160 truck_status_19_2 + 160 truck_status_19_3 + 160 truck_status_19_4
 + 160 truck_status_19_5 + 160 truck_status_19_6 + 160 truck_status_19_7
 + 160 truck_status_19_8 + 160 truck_status_19_9 >= 0
Truck_1_time_check_during_year_0: - 5 Route_1_('Anvers',_'Liege')_0
 - 5 Route_1_('Liege',_'Anvers')_0
 - 4.85714285714 Route_1_('Liege',_'Bruxelles')_0
 - 4.85714285714 Route_1_('Liege',_'Charleroi')_0
 - 6 Route_1_('Liege',_'Gand')_0
 - 3.71428571429 Route_1_('Liege',_'Hasselt')_0 + 160 truck_status_1_0
 + 160 truck_status_1_1 + 160 truck_status_1_10 + 160 truck_status_1_11
 + 160 truck_status_1_2 + 160 truck_status_1_3 + 160 truck_status_1_4
 + 160 truck_status_1_5 + 160 truck_status_1_6 + 160 truck_status_1_7
 + 160 truck_status_1_8 + 160 truck_status_1_9 >= 0
Truck_20_time_check_during_year_0: - 5 Route_20_('Anvers',_'Liege')_0
 - 5 Route_20_('Liege',_'Anvers')_0
 - 4.85714285714 Route_20_('Liege',_'Bruxelles')_0
 - 4.85714285714 Route_20_('Liege',_'Charleroi')_0
 - 6 Route_20_('Liege',_'Gand')_0
 - 3.71428571429 Route_20_('Liege',_'Hasselt')_0 + 160 truck_status_20_0
 + 160 truck_status_20_1 + 160 truck_status_20_10 + 160 truck_status_20_11
 + 160 truck_status_20_2 + 160 truck_status_20_3 + 160 truck_status_20_4
 + 160 truck_status_20_5 + 160 truck_status_20_6 + 160 truck_status_20_7
 + 160 truck_status_20_8 + 160 truck_status_20_9 >= 0
Truck_2_time_check_during_year_0: - 5 Route_2_('Anvers',_'Liege')_0
 - 5 Route_2_('Liege',_'Anvers')_0
 - 4.85714285714 Route_2_('Liege',_'Bruxelles')_0
 - 4.85714285714 Route_2_('Liege',_'Charleroi')_0
 - 6 Route_2_('Liege',_'Gand')_0
 - 3.71428571429 Route_2_('Liege',_'Hasselt')_0 + 160 truck_status_2_0
 + 160 truck_status_2_1 + 160 truck_status_2_10 + 160 truck_status_2_11
 + 160 truck_status_2_2 + 160 truck_status_2_3 + 160 truck_status_2_4
 + 160 truck_status_2_5 + 160 truck_status_2_6 + 160 truck_status_2_7
 + 160 truck_status_2_8 + 160 truck_status_2_9 >= 0
Truck_3_time_check_during_year_0: - 5 Route_3_('Anvers',_'Liege')_0
 - 5 Route_3_('Liege',_'Anvers')_0
 - 4.85714285714 Route_3_('Liege',_'Bruxelles')_0
 - 4.85714285714 Route_3_('Liege',_'Charleroi')_0
 - 6 Route_3_('Liege',_'Gand')_0
 - 3.71428571429 Route_3_('Liege',_'Hasselt')_0 + 160 truck_status_3_0
 + 160 truck_status_3_1 + 160 truck_status_3_10 + 160 truck_status_3_11
 + 160 truck_status_3_2 + 160 truck_status_3_3 + 160 truck_status_3_4
 + 160 truck_status_3_5 + 160 truck_status_3_6 + 160 truck_status_3_7
 + 160 truck_status_3_8 + 160 truck_status_3_9 >= 0
Truck_4_time_check_during_year_0: - 5 Route_4_('Anvers',_'Liege')_0
 - 5 Route_4_('Liege',_'Anvers')_0
 - 4.85714285714 Route_4_('Liege',_'Bruxelles')_0
 - 4.85714285714 Route_4_('Liege',_'Charleroi')_0
 - 6 Route_4_('Liege',_'Gand')_0
 - 3.71428571429 Route_4_('Liege',_'Hasselt')_0 + 160 truck_status_4_0
 + 160 truck_status_4_1 + 160 truck_status_4_10 + 160 truck_status_4_11
 + 160 truck_status_4_2 + 160 truck_status_4_3 + 160 truck_status_4_4
 + 160 truck_status_4_5 + 160 truck_status_4_6 + 160 truck_status_4_7
 + 160 truck_status_4_8 + 160 truck_status_4_9 >= 0
Truck_5_time_check_during_year_0: - 5 Route_5_('Anvers',_'Liege')_0
 - 5 Route_5_('Liege',_'Anvers')_0
 - 4.85714285714 Route_5_('Liege',_'Bruxelles')_0
 - 4.85714285714 Route_5_('Liege',_'Charleroi')_0
 - 6 Route_5_('Liege',_'Gand')_0
 - 3.71428571429 Route_5_('Liege',_'Hasselt')_0 + 160 truck_status_5_0
 + 160 truck_status_5_1 + 160 truck_status_5_10 + 160 truck_status_5_11
 + 160 truck_status_5_2 + 160 truck_status_5_3 + 160 truck_status_5_4
 + 160 truck_status_5_5 + 160 truck_status_5_6 + 160 truck_status_5_7
 + 160 truck_status_5_8 + 160 truck_status_5_9 >= 0
Truck_6_time_check_during_year_0: - 5 Route_6_('Anvers',_'Liege')_0
 - 5 Route_6_('Liege',_'Anvers')_0
 - 4.85714285714 Route_6_('Liege',_'Bruxelles')_0
 - 4.85714285714 Route_6_('Liege',_'Charleroi')_0
 - 6 Route_6_('Liege',_'Gand')_0
 - 3.71428571429 Route_6_('Liege',_'Hasselt')_0 + 160 truck_status_6_0
 + 160 truck_status_6_1 + 160 truck_status_6_10 + 160 truck_status_6_11
 + 160 truck_status_6_2 + 160 truck_status_6_3 + 160 truck_status_6_4
 + 160 truck_status_6_5 + 160 truck_status_6_6 + 160 truck_status_6_7
 + 160 truck_status_6_8 + 160 truck_status_6_9 >= 0
Truck_7_time_check_during_year_0: - 5 Route_7_('Anvers',_'Liege')_0
 - 5 Route_7_('Liege',_'Anvers')_0
 - 4.85714285714 Route_7_('Liege',_'Bruxelles')_0
 - 4.85714285714 Route_7_('Liege',_'Charleroi')_0
 - 6 Route_7_('Liege',_'Gand')_0
 - 3.71428571429 Route_7_('Liege',_'Hasselt')_0 + 160 truck_status_7_0
 + 160 truck_status_7_1 + 160 truck_status_7_10 + 160 truck_status_7_11
 + 160 truck_status_7_2 + 160 truck_status_7_3 + 160 truck_status_7_4
 + 160 truck_status_7_5 + 160 truck_status_7_6 + 160 truck_status_7_7
 + 160 truck_status_7_8 + 160 truck_status_7_9 >= 0
Truck_8_time_check_during_year_0: - 5 Route_8_('Anvers',_'Liege')_0
 - 5 Route_8_('Liege',_'Anvers')_0
 - 4.85714285714 Route_8_('Liege',_'Bruxelles')_0
 - 4.85714285714 Route_8_('Liege',_'Charleroi')_0
 - 6 Route_8_('Liege',_'Gand')_0
 - 3.71428571429 Route_8_('Liege',_'Hasselt')_0 + 160 truck_status_8_0
 + 160 truck_status_8_1 + 160 truck_status_8_10 + 160 truck_status_8_11
 + 160 truck_status_8_2 + 160 truck_status_8_3 + 160 truck_status_8_4
 + 160 truck_status_8_5 + 160 truck_status_8_6 + 160 truck_status_8_7
 + 160 truck_status_8_8 + 160 truck_status_8_9 >= 0
Truck_9_time_check_during_year_0: - 5 Route_9_('Anvers',_'Liege')_0
 - 5 Route_9_('Liege',_'Anvers')_0
 - 4.85714285714 Route_9_('Liege',_'Bruxelles')_0
 - 4.85714285714 Route_9_('Liege',_'Charleroi')_0
 - 6 Route_9_('Liege',_'Gand')_0
 - 3.71428571429 Route_9_('Liege',_'Hasselt')_0 + 160 truck_status_9_0
 + 160 truck_status_9_1 + 160 truck_status_9_10 + 160 truck_status_9_11
 + 160 truck_status_9_2 + 160 truck_status_9_3 + 160 truck_status_9_4
 + 160 truck_status_9_5 + 160 truck_status_9_6 + 160 truck_status_9_7
 + 160 truck_status_9_8 + 160 truck_status_9_9 >= 0
Bounds
0 <= Route_10_('Anvers',_'Liege')_0
0 <= Route_10_('Liege',_'Anvers')_0
0 <= Route_10_('Liege',_'Bruxelles')_0
0 <= Route_10_('Liege',_'Charleroi')_0
0 <= Route_10_('Liege',_'Gand')_0
0 <= Route_10_('Liege',_'Hasselt')_0
0 <= Route_11_('Anvers',_'Liege')_0
0 <= Route_11_('Liege',_'Anvers')_0
0 <= Route_11_('Liege',_'Bruxelles')_0
0 <= Route_11_('Liege',_'Charleroi')_0
0 <= Route_11_('Liege',_'Gand')_0
0 <= Route_11_('Liege',_'Hasselt')_0
0 <= Route_12_('Anvers',_'Liege')_0
0 <= Route_12_('Liege',_'Anvers')_0
0 <= Route_12_('Liege',_'Bruxelles')_0
0 <= Route_12_('Liege',_'Charleroi')_0
0 <= Route_12_('Liege',_'Gand')_0
0 <= Route_12_('Liege',_'Hasselt')_0
0 <= Route_13_('Anvers',_'Liege')_0
0 <= Route_13_('Liege',_'Anvers')_0
0 <= Route_13_('Liege',_'Bruxelles')_0
0 <= Route_13_('Liege',_'Charleroi')_0
0 <= Route_13_('Liege',_'Gand')_0
0 <= Route_13_('Liege',_'Hasselt')_0
0 <= Route_14_('Anvers',_'Liege')_0
0 <= Route_14_('Liege',_'Anvers')_0
0 <= Route_14_('Liege',_'Bruxelles')_0
0 <= Route_14_('Liege',_'Charleroi')_0
0 <= Route_14_('Liege',_'Gand')_0
0 <= Route_14_('Liege',_'Hasselt')_0
0 <= Route_15_('Anvers',_'Liege')_0
0 <= Route_15_('Liege',_'Anvers')_0
0 <= Route_15_('Liege',_'Bruxelles')_0
0 <= Route_15_('Liege',_'Charleroi')_0
0 <= Route_15_('Liege',_'Gand')_0
0 <= Route_15_('Liege',_'Hasselt')_0
0 <= Route_16_('Anvers',_'Liege')_0
0 <= Route_16_('Liege',_'Anvers')_0
0 <= Route_16_('Liege',_'Bruxelles')_0
0 <= Route_16_('Liege',_'Charleroi')_0
0 <= Route_16_('Liege',_'Gand')_0
0 <= Route_16_('Liege',_'Hasselt')_0
0 <= Route_17_('Anvers',_'Liege')_0
0 <= Route_17_('Liege',_'Anvers')_0
0 <= Route_17_('Liege',_'Bruxelles')_0
0 <= Route_17_('Liege',_'Charleroi')_0
0 <= Route_17_('Liege',_'Gand')_0
0 <= Route_17_('Liege',_'Hasselt')_0
0 <= Route_18_('Anvers',_'Liege')_0
0 <= Route_18_('Liege',_'Anvers')_0
0 <= Route_18_('Liege',_'Bruxelles')_0
0 <= Route_18_('Liege',_'Charleroi')_0
0 <= Route_18_('Liege',_'Gand')_0
0 <= Route_18_('Liege',_'Hasselt')_0
0 <= Route_19_('Anvers',_'Liege')_0
0 <= Route_19_('Liege',_'Anvers')_0
0 <= Route_19_('Liege',_'Bruxelles')_0
0 <= Route_19_('Liege',_'Charleroi')_0
0 <= Route_19_('Liege',_'Gand')_0
0 <= Route_19_('Liege',_'Hasselt')_0
0 <= Route_1_('Anvers',_'Liege')_0
0 <= Route_1_('Liege',_'Anvers')_0
0 <= Route_1_('Liege',_'Bruxelles')_0
0 <= Route_1_('Liege',_'Charleroi')_0
0 <= Route_1_('Liege',_'Gand')_0
0 <= Route_1_('Liege',_'Hasselt')_0
0 <= Route_20_('Anvers',_'Liege')_0
0 <= Route_20_('Liege',_'Anvers')_0
0 <= Route_20_('Liege',_'Bruxelles')_0
0 <= Route_20_('Liege',_'Charleroi')_0
0 <= Route_20_('Liege',_'Gand')_0
0 <= Route_20_('Liege',_'Hasselt')_0
0 <= Route_2_('Anvers',_'Liege')_0
0 <= Route_2_('Liege',_'Anvers')_0
0 <= Route_2_('Liege',_'Bruxelles')_0
0 <= Route_2_('Liege',_'Charleroi')_0
0 <= Route_2_('Liege',_'Gand')_0
0 <= Route_2_('Liege',_'Hasselt')_0
0 <= Route_3_('Anvers',_'Liege')_0
0 <= Route_3_('Liege',_'Anvers')_0
0 <= Route_3_('Liege',_'Bruxelles')_0
0 <= Route_3_('Liege',_'Charleroi')_0
0 <= Route_3_('Liege',_'Gand')_0
0 <= Route_3_('Liege',_'Hasselt')_0
0 <= Route_4_('Anvers',_'Liege')_0
0 <= Route_4_('Liege',_'Anvers')_0
0 <= Route_4_('Liege',_'Bruxelles')_0
0 <= Route_4_('Liege',_'Charleroi')_0
0 <= Route_4_('Liege',_'Gand')_0
0 <= Route_4_('Liege',_'Hasselt')_0
0 <= Route_5_('Anvers',_'Liege')_0
0 <= Route_5_('Liege',_'Anvers')_0
0 <= Route_5_('Liege',_'Bruxelles')_0
0 <= Route_5_('Liege',_'Charleroi')_0
0 <= Route_5_('Liege',_'Gand')_0
0 <= Route_5_('Liege',_'Hasselt')_0
0 <= Route_6_('Anvers',_'Liege')_0
0 <= Route_6_('Liege',_'Anvers')_0
0 <= Route_6_('Liege',_'Bruxelles')_0
0 <= Route_6_('Liege',_'Charleroi')_0
0 <= Route_6_('Liege',_'Gand')_0
0 <= Route_6_('Liege',_'Hasselt')_0
0 <= Route_7_('Anvers',_'Liege')_0
0 <= Route_7_('Liege',_'Anvers')_0
0 <= Route_7_('Liege',_'Bruxelles')_0
0 <= Route_7_('Liege',_'Charleroi')_0
0 <= Route_7_('Liege',_'Gand')_0
0 <= Route_7_('Liege',_'Hasselt')_0
0 <= Route_8_('Anvers',_'Liege')_0
0 <= Route_8_('Liege',_'Anvers')_0
0 <= Route_8_('Liege',_'Bruxelles')_0
0 <= Route_8_('Liege',_'Charleroi')_0
0 <= Route_8_('Liege',_'Gand')_0
0 <= Route_8_('Liege',_'Hasselt')_0
0 <= Route_9_('Anvers',_'Liege')_0
0 <= Route_9_('Liege',_'Anvers')_0
0 <= Route_9_('Liege',_'Bruxelles')_0
0 <= Route_9_('Liege',_'Charleroi')_0
0 <= Route_9_('Liege',_'Gand')_0
0 <= Route_9_('Liege',_'Hasselt')_0
Generals
Route_10_('Anvers',_'Liege')_0
Route_10_('Liege',_'Anvers')_0
Route_10_('Liege',_'Bruxelles')_0
Route_10_('Liege',_'Charleroi')_0
Route_10_('Liege',_'Gand')_0
Route_10_('Liege',_'Hasselt')_0
Route_11_('Anvers',_'Liege')_0
Route_11_('Liege',_'Anvers')_0
Route_11_('Liege',_'Bruxelles')_0
Route_11_('Liege',_'Charleroi')_0
Route_11_('Liege',_'Gand')_0
Route_11_('Liege',_'Hasselt')_0
Route_12_('Anvers',_'Liege')_0
Route_12_('Liege',_'Anvers')_0
Route_12_('Liege',_'Bruxelles')_0
Route_12_('Liege',_'Charleroi')_0
Route_12_('Liege',_'Gand')_0
Route_12_('Liege',_'Hasselt')_0
Route_13_('Anvers',_'Liege')_0
Route_13_('Liege',_'Anvers')_0
Route_13_('Liege',_'Bruxelles')_0
Route_13_('Liege',_'Charleroi')_0
Route_13_('Liege',_'Gand')_0
Route_13_('Liege',_'Hasselt')_0
Route_14_('Anvers',_'Liege')_0
Route_14_('Liege',_'Anvers')_0
Route_14_('Liege',_'Bruxelles')_0
Route_14_('Liege',_'Charleroi')_0
Route_14_('Liege',_'Gand')_0
Route_14_('Liege',_'Hasselt')_0
Route_15_('Anvers',_'Liege')_0
Route_15_('Liege',_'Anvers')_0
Route_15_('Liege',_'Bruxelles')_0
Route_15_('Liege',_'Charleroi')_0
Route_15_('Liege',_'Gand')_0
Route_15_('Liege',_'Hasselt')_0
Route_16_('Anvers',_'Liege')_0
Route_16_('Liege',_'Anvers')_0
Route_16_('Liege',_'Bruxelles')_0
Route_16_('Liege',_'Charleroi')_0
Route_16_('Liege',_'Gand')_0
Route_16_('Liege',_'Hasselt')_0
Route_17_('Anvers',_'Liege')_0
Route_17_('Liege',_'Anvers')_0
Route_17_('Liege',_'Bruxelles')_0
Route_17_('Liege',_'Charleroi')_0
Route_17_('Liege',_'Gand')_0
Route_17_('Liege',_'Hasselt')_0
Route_18_('Anvers',_'Liege')_0
Route_18_('Liege',_'Anvers')_0
Route_18_('Liege',_'Bruxelles')_0
Route_18_('Liege',_'Charleroi')_0
Route_18_('Liege',_'Gand')_0
Route_18_('Liege',_'Hasselt')_0
Route_19_('Anvers',_'Liege')_0
Route_19_('Liege',_'Anvers')_0
Route_19_('Liege',_'Bruxelles')_0
Route_19_('Liege',_'Charleroi')_0
Route_19_('Liege',_'Gand')_0
Route_19_('Liege',_'Hasselt')_0
Route_1_('Anvers',_'Liege')_0
Route_1_('Liege',_'Anvers')_0
Route_1_('Liege',_'Bruxelles')_0
Route_1_('Liege',_'Charleroi')_0
Route_1_('Liege',_'Gand')_0
Route_1_('Liege',_'Hasselt')_0
Route_20_('Anvers',_'Liege')_0
Route_20_('Liege',_'Anvers')_0
Route_20_('Liege',_'Bruxelles')_0
Route_20_('Liege',_'Charleroi')_0
Route_20_('Liege',_'Gand')_0
Route_20_('Liege',_'Hasselt')_0
Route_2_('Anvers',_'Liege')_0
Route_2_('Liege',_'Anvers')_0
Route_2_('Liege',_'Bruxelles')_0
Route_2_('Liege',_'Charleroi')_0
Route_2_('Liege',_'Gand')_0
Route_2_('Liege',_'Hasselt')_0
Route_3_('Anvers',_'Liege')_0
Route_3_('Liege',_'Anvers')_0
Route_3_('Liege',_'Bruxelles')_0
Route_3_('Liege',_'Charleroi')_0
Route_3_('Liege',_'Gand')_0
Route_3_('Liege',_'Hasselt')_0
Route_4_('Anvers',_'Liege')_0
Route_4_('Liege',_'Anvers')_0
Route_4_('Liege',_'Bruxelles')_0
Route_4_('Liege',_'Charleroi')_0
Route_4_('Liege',_'Gand')_0
Route_4_('Liege',_'Hasselt')_0
Route_5_('Anvers',_'Liege')_0
Route_5_('Liege',_'Anvers')_0
Route_5_('Liege',_'Bruxelles')_0
Route_5_('Liege',_'Charleroi')_0
Route_5_('Liege',_'Gand')_0
Route_5_('Liege',_'Hasselt')_0
Route_6_('Anvers',_'Liege')_0
Route_6_('Liege',_'Anvers')_0
Route_6_('Liege',_'Bruxelles')_0
Route_6_('Liege',_'Charleroi')_0
Route_6_('Liege',_'Gand')_0
Route_6_('Liege',_'Hasselt')_0
Route_7_('Anvers',_'Liege')_0
Route_7_('Liege',_'Anvers')_0
Route_7_('Liege',_'Bruxelles')_0
Route_7_('Liege',_'Charleroi')_0
Route_7_('Liege',_'Gand')_0
Route_7_('Liege',_'Hasselt')_0
Route_8_('Anvers',_'Liege')_0
Route_8_('Liege',_'Anvers')_0
Route_8_('Liege',_'Bruxelles')_0
Route_8_('Liege',_'Charleroi')_0
Route_8_('Liege',_'Gand')_0
Route_8_('Liege',_'Hasselt')_0
Route_9_('Anvers',_'Liege')_0
Route_9_('Liege',_'Anvers')_0
Route_9_('Liege',_'Bruxelles')_0
Route_9_('Liege',_'Charleroi')_0
Route_9_('Liege',_'Gand')_0
Route_9_('Liege',_'Hasselt')_0
Binaries
truck_status_10_0
truck_status_10_1
truck_status_10_10
truck_status_10_11
truck_status_10_2
truck_status_10_3
truck_status_10_4
truck_status_10_5
truck_status_10_6
truck_status_10_7
truck_status_10_8
truck_status_10_9
truck_status_11_0
truck_status_11_1
truck_status_11_10
truck_status_11_11
truck_status_11_2
truck_status_11_3
truck_status_11_4
truck_status_11_5
truck_status_11_6
truck_status_11_7
truck_status_11_8
truck_status_11_9
truck_status_12_0
truck_status_12_1
truck_status_12_10
truck_status_12_11
truck_status_12_2
truck_status_12_3
truck_status_12_4
truck_status_12_5
truck_status_12_6
truck_status_12_7
truck_status_12_8
truck_status_12_9
truck_status_13_0
truck_status_13_1
truck_status_13_10
truck_status_13_11
truck_status_13_2
truck_status_13_3
truck_status_13_4
truck_status_13_5
truck_status_13_6
truck_status_13_7
truck_status_13_8
truck_status_13_9
truck_status_14_0
truck_status_14_1
truck_status_14_10
truck_status_14_11
truck_status_14_2
truck_status_14_3
truck_status_14_4
truck_status_14_5
truck_status_14_6
truck_status_14_7
truck_status_14_8
truck_status_14_9
truck_status_15_0
truck_status_15_1
truck_status_15_10
truck_status_15_11
truck_status_15_2
truck_status_15_3
truck_status_15_4
truck_status_15_5
truck_status_15_6
truck_status_15_7
truck_status_15_8
truck_status_15_9
truck_status_16_0
truck_status_16_1
truck_status_16_10
truck_status_16_11
truck_status_16_2
truck_status_16_3
truck_status_16_4
truck_status_16_5
truck_status_16_6
truck_status_16_7
truck_status_16_8
truck_status_16_9
truck_status_17_0
truck_status_17_1
truck_status_17_10
truck_status_17_11
truck_status_17_2
truck_status_17_3
truck_status_17_4
truck_status_17_5
truck_status_17_6
truck_status_17_7
truck_status_17_8
truck_status_17_9
truck_status_18_0
truck_status_18_1
truck_status_18_10
truck_status_18_11
truck_status_18_2
truck_status_18_3
truck_status_18_4
truck_status_18_5
truck_status_18_6
truck_status_18_7
truck_status_18_8
truck_status_18_9
truck_status_19_0
truck_status_19_1
truck_status_19_10
truck_status_19_11
truck_status_19_2
truck_status_19_3
truck_status_19_4
truck_status_19_5
truck_status_19_6
truck_status_19_7
truck_status_19_8
truck_status_19_9
truck_status_1_0
truck_status_1_1
truck_status_1_10
truck_status_1_11
truck_status_1_2
truck_status_1_3
truck_status_1_4
truck_status_1_5
truck_status_1_6
truck_status_1_7
truck_status_1_8
truck_status_1_9
truck_status_20_0
truck_status_20_1
truck_status_20_10
truck_status_20_11
truck_status_20_2
truck_status_20_3
truck_status_20_4
truck_status_20_5
truck_status_20_6
truck_status_20_7
truck_status_20_8
truck_status_20_9
truck_status_2_0
truck_status_2_1
truck_status_2_10
truck_status_2_11
truck_status_2_2
truck_status_2_3
truck_status_2_4
truck_status_2_5
truck_status_2_6
truck_status_2_7
truck_status_2_8
truck_status_2_9
truck_status_3_0
truck_status_3_1
truck_status_3_10
truck_status_3_11
truck_status_3_2
truck_status_3_3
truck_status_3_4
truck_status_3_5
truck_status_3_6
truck_status_3_7
truck_status_3_8
truck_status_3_9
truck_status_4_0
truck_status_4_1
truck_status_4_10
truck_status_4_11
truck_status_4_2
truck_status_4_3
truck_status_4_4
truck_status_4_5
truck_status_4_6
truck_status_4_7
truck_status_4_8
truck_status_4_9
truck_status_5_0
truck_status_5_1
truck_status_5_10
truck_status_5_11
truck_status_5_2
truck_status_5_3
truck_status_5_4
truck_status_5_5
truck_status_5_6
truck_status_5_7
truck_status_5_8
truck_status_5_9
truck_status_6_0
truck_status_6_1
truck_status_6_10
truck_status_6_11
truck_status_6_2
truck_status_6_3
truck_status_6_4
truck_status_6_5
truck_status_6_6
truck_status_6_7
truck_status_6_8
truck_status_6_9
truck_status_7_0
truck_status_7_1
truck_status_7_10
truck_status_7_11
truck_status_7_2
truck_status_7_3
truck_status_7_4
truck_status_7_5
truck_status_7_6
truck_status_7_7
truck_status_7_8
truck_status_7_9
truck_status_8_0
truck_status_8_1
truck_status_8_10
truck_status_8_11
truck_status_8_2
truck_status_8_3
truck_status_8_4
truck_status_8_5
truck_status_8_6
truck_status_8_7
truck_status_8_8
truck_status_8_9
truck_status_9_0
truck_status_9_1
truck_status_9_10
truck_status_9_11
truck_status_9_2
truck_status_9_3
truck_status_9_4
truck_status_9_5
truck_status_9_6
truck_status_9_7
truck_status_9_8
truck_status_9_9
End
